100
30
19
31
31
5
25
12
14
11
15
22
28
8
29
15
16
11
14
31
22
27
25
7
18
17
23
16
31
31
10
26
18
24
13
5
11
17
27
7
3
32
31
30
11
18
1
5
16
22
16
25
17
1
29
12
28
6
28
20
18
5
10
4
27
10
29
6
2
30
4
2
31
10
20
17
3
17
13
31
29
26
28
28
31
14
16
17
12
31
25
9
5
22
30
7
4
1
1
1
4
2